(declare-fun temp1384_1 () (_ BitVec 64))
(declare-fun temp1384_2 () (_ BitVec 64))
(declare-fun var76042 () (_ BitVec 64))
(declare-fun k!0 () Bool)
(declare-fun ARGNAME_input_NAMEEND_DIM () (_ BitVec 64))
(declare-fun ARGNAME_data_format_NAMEEND_STRFMT () (_ BitVec 64))
(declare-fun temp1384_3 () (_ BitVec 64))
(declare-fun ARGNAME_out_backprop_NAMEEND_DIM () (_ BitVec 64))
(declare-fun var76103 () (_ BitVec 64))
(declare-fun temp1384_4 () (_ BitVec 64))
(declare-fun temp1384_5 () (_ BitVec 64))
(declare-fun ARGNAME_input_NAMEEND_DIMSIZE
             ()
             (Array (_ BitVec 64) (_ BitVec 64)))
(declare-fun temp1384_6 () (_ BitVec 64))
(declare-fun temp1384_7 () (_ BitVec 64))
(declare-fun temp1384_8 () (_ BitVec 64))
(declare-fun temp1384_9 () (_ BitVec 64))
(declare-fun temp1384_10 () (_ BitVec 64))
(declare-fun temp1384_11 () (_ BitVec 64))
(declare-fun temp1384_12 () (_ BitVec 64))
(declare-fun temp1384_13 () (_ BitVec 64))
(declare-fun temp1384_14 () (_ BitVec 64))
(declare-fun temp1384_15 () (_ BitVec 64))
(declare-fun temp1384_16 () (_ BitVec 64))
(declare-fun temp1384_17 () (_ BitVec 64))
(declare-fun temp1384_18 () (_ BitVec 64))
(declare-fun var76131 () (_ BitVec 64))
(declare-fun temp1384_19 () (_ BitVec 64))
(declare-fun ARGNAME_out_backprop_NAMEEND_DIMSIZE
             ()
             (Array (_ BitVec 64) (_ BitVec 64)))
(declare-fun temp1384_20 () (_ BitVec 64))
(declare-fun temp1384_21 () (_ BitVec 64))
(declare-fun temp1384_22 () (_ BitVec 64))
(declare-fun temp1384_23 () (_ BitVec 64))
(declare-fun temp1384_24 () (_ BitVec 64))
(declare-fun temp1384_25 () (_ BitVec 64))
(declare-fun temp1384_26 () (_ BitVec 64))
(declare-fun temp1384_27 () (_ BitVec 64))
(declare-fun temp1384_28 () (_ BitVec 64))
(declare-fun temp1384_29 () (_ BitVec 64))
(declare-fun temp1384_30 () (_ BitVec 64))
(declare-fun temp1384_31 () (_ BitVec 64))
(declare-fun temp1384_32 () (_ BitVec 64))
(declare-fun var76165 () (_ BitVec 64))
(declare-fun temp1384_33 () (_ BitVec 64))
(declare-fun ARGNAME_input_NAMEEND_NUMELEMENT () (_ BitVec 64))
(declare-fun var76268 () (_ BitVec 64))
(declare-fun temp1384_34 () (_ BitVec 64))
(declare-fun temp1384_35 () (_ BitVec 64))
(declare-fun var275510 () (_ BitVec 64))
(declare-fun temp1384_36 () (_ BitVec 64))
(declare-fun var275528 () (_ BitVec 64))
(declare-fun temp1384_37 () (_ BitVec 64))
(declare-fun temp1384_39 () (_ BitVec 64))
(declare-fun temp1384_38 () (_ BitVec 64))
(declare-fun temp1384_41 () (_ BitVec 64))
(declare-fun temp1384_40 () (_ BitVec 64))
(declare-fun temp1384_42 () (_ BitVec 64))
(declare-fun var406582 () (_ BitVec 64))
(declare-fun temp1384_43 () (_ BitVec 64))
(declare-fun var406600 () (_ BitVec 64))
(declare-fun temp1384_44 () (_ BitVec 64))
(declare-fun temp1384_45 () (_ BitVec 64))
(declare-fun var537654 () (_ BitVec 64))
(declare-fun temp1384_46 () (_ BitVec 64))
(declare-fun var537672 () (_ BitVec 64))
(declare-fun temp1384_47 () (_ BitVec 64))
(declare-fun temp1384_49 () (_ BitVec 64))
(declare-fun temp1384_48 () (_ BitVec 64))
(declare-fun temp1384_51 () (_ BitVec 64))
(declare-fun temp1384_50 () (_ BitVec 64))
(declare-fun temp1384_53 () (_ BitVec 64))
(declare-fun temp1384_52 () (_ BitVec 64))
(declare-fun temp1384_55 () (_ BitVec 64))
(declare-fun temp1384_54 () (_ BitVec 64))
(declare-fun temp1384_57 () (_ BitVec 64))
(declare-fun temp1384_56 () (_ BitVec 64))
(declare-fun temp1384_58 () (_ BitVec 64))
(declare-fun var795723 () (_ BitVec 64))
(declare-fun var795702 () (_ BitVec 64))
(declare-fun var664608 () (_ BitVec 64))
(declare-fun temp1384_59 () (_ BitVec 64))
(declare-fun temp1384_60 () (_ BitVec 64))
(declare-fun var861259 () (_ BitVec 64))
(declare-fun var861238 () (_ BitVec 64))
(declare-fun var664611 () (_ BitVec 64))
(declare-fun temp1384_61 () (_ BitVec 64))
(declare-fun temp1384_62 () (_ BitVec 64))
(declare-fun var1057842 () (_ BitVec 64))
(declare-fun temp1384_63 () (_ BitVec 64))
(declare-fun var1123378 () (_ BitVec 64))
(declare-fun temp1384_64 () (_ BitVec 64))
(declare-fun var1188914 () (_ BitVec 64))
(assert (or (= ARGNAME_data_format_NAMEEND_STRFMT #x0000000000000000)
    (= ARGNAME_data_format_NAMEEND_STRFMT #x0000000000000001)
    (= ARGNAME_data_format_NAMEEND_STRFMT #x0000000000000002)
    (= ARGNAME_data_format_NAMEEND_STRFMT #x0000000000000003)
    (= ARGNAME_data_format_NAMEEND_STRFMT #x0000000000000004)
    (= ARGNAME_data_format_NAMEEND_STRFMT #x0000000000000005)))
(assert (= temp1384_1 #x0000000000000005))
(assert (= var76042
   (ite (= ARGNAME_input_NAMEEND_DIM temp1384_1)
        #x0000000000000001
        #x0000000000000000)))
(assert (= temp1384_2 #x0000000000000001))
(assert (= var76042 temp1384_2))
(assert (= temp1384_3 #x0000000000000005))
(assert (= var76103
   (ite (= ARGNAME_out_backprop_NAMEEND_DIM temp1384_3)
        #x0000000000000001
        #x0000000000000000)))
(assert (= temp1384_4 #x0000000000000001))
(assert (= var76103 temp1384_4))
(assert (= temp1384_5 #x0000000000000000))
(assert (= temp1384_6 (select ARGNAME_input_NAMEEND_DIMSIZE temp1384_5)))
(assert (= temp1384_7 #x0000000000000001))
(assert (= temp1384_8 (select ARGNAME_input_NAMEEND_DIMSIZE temp1384_7)))
(assert (= temp1384_9 #x0000000000000002))
(assert (= temp1384_10 (select ARGNAME_input_NAMEEND_DIMSIZE temp1384_9)))
(assert (= temp1384_11 #x0000000000000003))
(assert (= temp1384_12 (select ARGNAME_input_NAMEEND_DIMSIZE temp1384_11)))
(assert (= temp1384_13 #x0000000000000004))
(assert (= temp1384_14 (select ARGNAME_input_NAMEEND_DIMSIZE temp1384_13)))
(assert (= temp1384_15 #x0000000000000005))
(assert (= temp1384_16 (select ARGNAME_input_NAMEEND_DIMSIZE temp1384_15)))
(assert (= temp1384_17 #x0000000000000004))
(assert (= temp1384_18 (select ARGNAME_input_NAMEEND_DIMSIZE temp1384_17)))
(assert (= var76131 temp1384_18))
(assert (= temp1384_19 #x0000000000000000))
(assert (= temp1384_20 (select ARGNAME_out_backprop_NAMEEND_DIMSIZE temp1384_19)))
(assert (= temp1384_21 #x0000000000000001))
(assert (= temp1384_22 (select ARGNAME_out_backprop_NAMEEND_DIMSIZE temp1384_21)))
(assert (= temp1384_23 #x0000000000000002))
(assert (= temp1384_24 (select ARGNAME_out_backprop_NAMEEND_DIMSIZE temp1384_23)))
(assert (= temp1384_25 #x0000000000000003))
(assert (= temp1384_26 (select ARGNAME_out_backprop_NAMEEND_DIMSIZE temp1384_25)))
(assert (= temp1384_27 #x0000000000000004))
(assert (= temp1384_28 (select ARGNAME_out_backprop_NAMEEND_DIMSIZE temp1384_27)))
(assert (= temp1384_29 #x0000000000000005))
(assert (= temp1384_30 (select ARGNAME_out_backprop_NAMEEND_DIMSIZE temp1384_29)))
(assert (= temp1384_31 #x0000000000000004))
(assert (= temp1384_32 (select ARGNAME_out_backprop_NAMEEND_DIMSIZE temp1384_31)))
(assert (= var76165 temp1384_32))
(assert (= temp1384_33 #x0000000000000000))
(assert (= var76268
   (ite (= ARGNAME_input_NAMEEND_NUMELEMENT temp1384_33)
        #x0000000000000001
        #x0000000000000000)))
(assert (= temp1384_34 #x0000000000000000))
(assert (= var76268 temp1384_34))
(assert (= temp1384_35 #x0000000000000001))
(assert (= var275510 temp1384_35))
(assert (= temp1384_36 #x0000000000000001))
(assert (= var275528
   (ite (bvslt var275510 temp1384_36) #x0000000000000001 #x0000000000000000)))
(assert (= temp1384_37 #x0000000000000000))
(assert (= var275528 temp1384_37))
(assert (= temp1384_39 #x0000000000000000))
(assert (= temp1384_38 temp1384_39))
(assert (= temp1384_41 #x0000000000000000))
(assert (= temp1384_40 temp1384_41))
(assert (= temp1384_42 #x0000000000000001))
(assert (= var406582 temp1384_42))
(assert (= temp1384_43 #x0000000000000001))
(assert (= var406600
   (ite (bvslt var406582 temp1384_43) #x0000000000000001 #x0000000000000000)))
(assert (= temp1384_44 #x0000000000000000))
(assert (= var406600 temp1384_44))
(assert (= temp1384_45 #x0000000000000001))
(assert (= var537654 temp1384_45))
(assert (= temp1384_46 #x0000000000000001))
(assert (= var537672
   (ite (bvslt var537654 temp1384_46) #x0000000000000001 #x0000000000000000)))
(assert (= temp1384_47 #x0000000000000000))
(assert (= var537672 temp1384_47))
(assert (= temp1384_49 #x0000000000000000))
(assert (= temp1384_48 temp1384_49))
(assert (= temp1384_51 #x0000000000000000))
(assert (= temp1384_50 temp1384_51))
(assert (= temp1384_53 #x00000000000000ff))
(assert (= temp1384_52 temp1384_53))
(assert (= temp1384_55 #x00000000000000ff))
(assert (= temp1384_54 temp1384_55))
(assert (= temp1384_57 #x00000000000000ff))
(assert (= temp1384_56 temp1384_57))
(assert (= temp1384_58 #x0000000000000000))
(assert (= var795723 temp1384_58))
(assert (= var795702 var795723))
(assert (= var664608 var795702))
(assert (= temp1384_59 #x0000000000000000))
(assert (= var664608 temp1384_59))
(assert (= temp1384_60 #x0000000000000000))
(assert (= var861259 temp1384_60))
(assert (= var861238 var861259))
(assert (= var664611 var861238))
(assert (= temp1384_61 #x0000000000000000))
(assert (= var664611 temp1384_61))
(assert (= temp1384_62 #x0000000000008000))
(assert (= var1057842 temp1384_62))
(assert (= temp1384_63 #x0000000000040000))
(assert (= var1123378 temp1384_63))
(assert (= temp1384_64 #x0000000000200000))
(assert (= var1188914 temp1384_64))
(model-add temp1384_1 () (_ BitVec 64) #x0000000000000005)
(model-add temp1384_2 () (_ BitVec 64) #x0000000000000001)
(model-add var76042 () (_ BitVec 64) #x0000000000000001)
(model-del k!0)
(model-add ARGNAME_input_NAMEEND_DIM
           ()
           (_ BitVec 64)
           (ite k!0 #x0000000000000005 (bvnot #x0000000000000005)))


